
Gurobi 8.1.1 (win64) logging started 11/23/19 16:15:27

Changed value of parameter LogFile to logs/full/feas/full-06-30-2.log
   Prev: gurobi.log  Default: 
Changed value of parameter LogToConsole to 0
   Prev: 1  Min: 0  Max: 1  Default: 1
Changed value of parameter TimeLimit to 3600.0
   Prev: 1e+100  Min: 0.0  Max: 1e+100  Default: 1e+100
Optimize a model with 1994 rows, 936 columns and 7524 nonzeros
Variable types: 0 continuous, 936 integer (924 binary)
Coefficient statistics:
  Matrix range     [1e+00, 5e+02]
  Objective range  [1e+00, 1e+00]
  Bounds range     [1e+00, 1e+00]
  RHS range        [1e+00, 6e+02]
Presolve time: 0.01s
Presolved: 1994 rows, 936 columns, 7524 nonzeros
Variable types: 0 continuous, 936 integer (924 binary)

Root relaxation: objective 6.600000e+01, 180 iterations, 0.00 seconds

    Nodes    |    Current Node    |     Objective Bounds      |     Work
 Expl Unexpl |  Obj  Depth IntInf | Incumbent    BestBd   Gap | It/Node Time

     0     0   66.00000    0  115          -   66.00000      -     -    0s
     0     0   66.00000    0  170          -   66.00000      -     -    0s
     0     0   66.00000    0  113          -   66.00000      -     -    0s
     0     0   66.00000    0  113          -   66.00000      -     -    0s
     0     2   66.00000    0  101          -   66.00000      -     -    0s
  1140  1049  287.00000  262  147          -   78.64278      -   4.7    5s
  1320  1169  104.00000   91  201          -   80.84197      -   4.1   10s
  1532  1310  355.00000  443  249          -   82.79955      -   3.5   15s
  1694  1418   87.00000   35  289          -   84.29997      -   3.2   20s
  1876  1539   85.44188  112  325          -   85.44188      -   2.9   25s
  2007  1628  102.00000   71  383          -   86.81302      -  94.5   30s
  2143  1719  110.00000  236  385          -   88.23083      -  88.5   35s
H 2256  1698                     258.0000000   89.16186  65.4%  84.1   39s
  2257  1699  218.08681  296  207  258.00000   89.16186  65.4%  84.1   40s
  2339  1753  115.00000  326  232  258.00000   90.06707  65.1%  81.1   45s
  2438  1819  110.00000  259  281  258.00000   91.06091  64.7%  77.8   50s
  2532  1882  258.00000  443  351  258.00000   91.69441  64.5%  74.9   55s
  2626  1945   92.66547  125  331  258.00000   92.66547  64.1%  72.3   60s
  2690  1987  258.00000  444  337  258.00000   93.17855  63.9%  70.5   65s
  2764  2037  159.00000  322  341  258.00000   93.64658  63.7%  68.7   70s
  2904  2133  258.00000  417  126  258.00000  152.37072  40.9%   105   75s
H 3020  2096                     246.0000000  158.58137  35.5%   101   78s
H 3070  2019                     227.0000000  160.49726  29.3%  99.3   79s
  3096  2037  227.00000  199  136  227.00000  161.41193  28.9%  98.4   80s
  3251  2140  163.30334   32  172  227.00000  163.30334  28.1%  93.7   85s
  3379  2225  227.00000  233  148  227.00000  165.42674  27.1%  90.2   90s
  3555  2343  173.28420  114  194  227.00000  173.28420  23.7%  85.7   95s
H 3680  2305                     215.0000000  175.15066  18.5%   100   97s
  3856  2422  181.32891   69   80  215.00000  181.32891  15.7%  95.1  100s
H 4190  2516                     211.0000000  189.86131  10.0%  94.5  104s
  4198  2522  189.97559  110   57  211.00000  189.97559  10.0%  94.3  105s

Cutting planes:
  Gomory: 1
  Cover: 2
  Implied bound: 8
  MIR: 4
  StrongCG: 1
  Flow cover: 31

Explored 4534 nodes (424602 simplex iterations) in 109.22 seconds
Thread count was 4 (of 4 available processors)

Solution count 5: 211 215 227 ... 258

Optimal solution found (tolerance 1.00e-04)
Best objective 2.110000000000e+02, best bound 2.110000000000e+02, gap 0.0000%

Gurobi 8.1.1 (win64) logging started 11/23/19 16:17:16

Changed value of parameter LogFile to logs/full/feas/full-06-30-2.log
   Prev: gurobi.log  Default: 
Changed value of parameter LogToConsole to 0
   Prev: 1  Min: 0  Max: 1  Default: 1
Changed value of parameter TimeLimit to 3600.0
   Prev: 1e+100  Min: 0.0  Max: 1e+100  Default: 1e+100
Optimize a model with 1094 rows, 513 columns and 4104 nonzeros
Variable types: 0 continuous, 513 integer (504 binary)
Coefficient statistics:
  Matrix range     [1e+00, 5e+02]
  Objective range  [1e+00, 1e+00]
  Bounds range     [1e+00, 1e+00]
  RHS range        [1e+00, 6e+02]
Presolve time: 0.01s
Presolved: 1094 rows, 513 columns, 4104 nonzeros
Variable types: 0 continuous, 513 integer (504 binary)

Root relaxation: objective 3.600000e+01, 198 iterations, 0.00 seconds

    Nodes    |    Current Node    |     Objective Bounds      |     Work
 Expl Unexpl |  Obj  Depth IntInf | Incumbent    BestBd   Gap | It/Node Time

     0     0   36.00000    0  159          -   36.00000      -     -    0s
     0     0   42.02141    0  139          -   42.02141      -     -    0s
     0     0   47.20808    0   95          -   47.20808      -     -    0s
     0     0   47.22477    0   93          -   47.22477      -     -    0s
     0     0   47.22477    0   93          -   47.22477      -     -    0s
     0     0   48.48206    0   95          -   48.48206      -     -    0s
     0     0   48.52774    0   91          -   48.52774      -     -    0s
     0     0   48.52774    0   91          -   48.52774      -     -    0s
     0     0   48.92732    0   98          -   48.92732      -     -    0s
     0     0   49.04679    0   99          -   49.04679      -     -    0s
     0     0   49.04679    0  107          -   49.04679      -     -    0s
     0     0   49.04679    0   99          -   49.04679      -     -    0s
     0     0   49.04679    0  104          -   49.04679      -     -    0s
     0     0   49.07775    0   97          -   49.07775      -     -    0s
     0     0   49.07775    0   89          -   49.07775      -     -    0s
     0     2   49.07775    0   80          -   49.07775      -     -    0s
H15373 10630                     635.0000000  116.65230  81.6%   7.2    3s
H15651  9569                     500.0000000  116.76281  76.6%   7.1    3s
 20015 12447  325.00000  166   32  500.00000  120.00000  76.0%   7.4    5s
 20834 12960  229.00000   66   71  500.00000  121.00000  75.8%   7.4   10s
 20849 12970  246.00000  216  129  500.00000  121.00000  75.8%   7.4   15s
 20864 12980  436.00000  144  109  500.00000  121.00000  75.8%   7.4   20s
 20885 12994  171.00000   95  122  500.00000  121.00000  75.8%   7.4   25s
 20905 13007  394.00000   89  116  500.00000  121.00000  75.8%   7.4   30s
 20921 13018  478.00000  106  103  500.00000  121.93154  75.6%   7.3   35s
H20935 12373                     206.0000000  123.11609  40.2%   7.3   38s
 20946 12381  180.00000  148   99  206.00000  124.47789  39.6%   7.3   40s
 20966 12394  206.00000   76   82  206.00000  126.70225  38.5%   7.3   45s
 20985 12407  171.00000   95  105  206.00000  127.82822  37.9%   7.3   50s
 21016 12429  189.05460  114   89  206.00000  146.66661  28.8%   9.1   55s
 21085 12475  171.00000   95  121  206.00000  158.36893  23.1%   9.1   60s
 21124 12501  206.00000  197  144  206.00000  160.72824  22.0%   9.1   65s
 21154 12521  199.75724   60  144  206.00000  161.76613  21.5%   9.1   70s
H21172 11903                     205.0000000  162.04115  21.0%   9.0   73s
 21179 11908  174.00000  175  158  205.00000  162.07676  20.9%   9.0   75s
 21206 11926  162.24561   46  159  205.00000  162.24561  20.9%   9.0   80s
 21232 11943  189.00000   61  150  205.00000  162.41496  20.8%   9.0   85s
 21245 11955  162.57243   38  128  205.00000  162.56635  20.7%  10.2   90s

Cutting planes:
  Gomory: 2
  Implied bound: 3
  Clique: 1
  MIR: 109
  StrongCG: 1
  Flow cover: 95

Explored 21529 nodes (252793 simplex iterations) in 92.96 seconds
Thread count was 4 (of 4 available processors)

Solution count 4: 205 206 500 635 

Optimal solution found (tolerance 1.00e-04)
Best objective 2.050000000000e+02, best bound 2.050000000000e+02, gap 0.0000%

Gurobi 8.1.1 (win64) logging started 11/23/19 16:18:49

Changed value of parameter LogFile to logs/full/feas/full-06-30-2.log
   Prev: gurobi.log  Default: 
Changed value of parameter LogToConsole to 0
   Prev: 1  Min: 0  Max: 1  Default: 1
Changed value of parameter TimeLimit to 3600.0
   Prev: 1e+100  Min: 0.0  Max: 1e+100  Default: 1e+100
Optimize a model with 854 rows, 400 columns and 3192 nonzeros
Variable types: 0 continuous, 400 integer (392 binary)
Coefficient statistics:
  Matrix range     [1e+00, 5e+02]
  Objective range  [1e+00, 1e+00]
  Bounds range     [1e+00, 1e+00]
  RHS range        [1e+00, 6e+02]
Presolve time: 0.01s
Presolved: 854 rows, 400 columns, 3192 nonzeros
Variable types: 0 continuous, 400 integer (392 binary)

Root relaxation: objective 2.814286e+01, 216 iterations, 0.00 seconds

    Nodes    |    Current Node    |     Objective Bounds      |     Work
 Expl Unexpl |  Obj  Depth IntInf | Incumbent    BestBd   Gap | It/Node Time

     0     0   28.14286    0  188          -   28.14286      -     -    0s
     0     0   39.80497    0  136          -   39.80497      -     -    0s
     0     0   39.92462    0  134          -   39.92462      -     -    0s
     0     0   43.72055    0   89          -   43.72055      -     -    0s
     0     0   43.75588    0   89          -   43.75588      -     -    0s
     0     0   43.75588    0   91          -   43.75588      -     -    0s
     0     0   44.29233    0  110          -   44.29233      -     -    0s
     0     0   44.30955    0  187          -   44.30955      -     -    0s
     0     0   44.31060    0  188          -   44.31060      -     -    0s
     0     0   44.32680    0  164          -   44.32680      -     -    0s
     0     0   44.32680    0  158          -   44.32680      -     -    0s
     0     2   44.32680    0  150          -   44.32680      -     -    0s
 20671 14664  138.00000  122   53          -  138.00000      -   6.4    5s
H31982 16711                     291.0000000  143.00000  50.9%   6.5    6s
H32566 15765                     269.0000000  143.00000  46.8%   6.5    6s
*35634 16968             114     261.0000000  145.00000  44.4%   6.6    7s
 45154 22670  163.00000   96   29  261.00000  148.87137  43.0%   6.9   10s
H60431 28128                     251.0000000  158.00000  37.1%   7.4   14s
H60551 24037                     232.0000000  158.00000  31.9%   7.4   14s
H60743 22283                     225.0000000  158.00000  29.8%   7.4   14s
 62377 22796  166.00000   75  158  225.00000  159.00000  29.3%   7.4   17s
 62565 22828  159.00000   52   60  225.00000  159.00000  29.3%   7.6   20s
 73490 23294  185.40000   74   45  225.00000  159.00000  29.3%   8.6   25s
 80233 18335 infeasible   76       225.00000  192.00000  14.7%   9.4   30s
*80392 17054              45     224.0000000  192.00000  14.3%   9.5   30s

Cutting planes:
  Learned: 1
  Gomory: 1
  MIR: 7
  StrongCG: 1
  Flow cover: 19
  Zero half: 1

Explored 82089 nodes (802235 simplex iterations) in 31.17 seconds
Thread count was 4 (of 4 available processors)

Solution count 7: 224 225 232 ... 291

Optimal solution found (tolerance 1.00e-04)
Best objective 2.240000000000e+02, best bound 2.240000000000e+02, gap 0.0000%

Gurobi 8.1.1 (win64) logging started 11/23/19 16:19:20

Changed value of parameter LogFile to logs/full/feas/full-06-30-2.log
   Prev: gurobi.log  Default: 
Changed value of parameter LogToConsole to 0
   Prev: 1  Min: 0  Max: 1  Default: 1
Changed value of parameter TimeLimit to 3600.0
   Prev: 1e+100  Min: 0.0  Max: 1e+100  Default: 1e+100
Optimize a model with 644 rows, 301 columns and 2394 nonzeros
Variable types: 0 continuous, 301 integer (294 binary)
Coefficient statistics:
  Matrix range     [1e+00, 5e+02]
  Objective range  [1e+00, 1e+00]
  Bounds range     [1e+00, 1e+00]
  RHS range        [1e+00, 6e+02]
Presolve time: 0.01s
Presolved: 644 rows, 301 columns, 2394 nonzeros
Variable types: 0 continuous, 301 integer (294 binary)

Root relaxation: objective 2.583333e+01, 284 iterations, 0.00 seconds

    Nodes    |    Current Node    |     Objective Bounds      |     Work
 Expl Unexpl |  Obj  Depth IntInf | Incumbent    BestBd   Gap | It/Node Time

     0     0   25.83333    0  164          -   25.83333      -     -    0s
     0     0   36.97456    0  119          -   36.97456      -     -    0s
     0     0   36.97456    0  118          -   36.97456      -     -    0s
     0     0   41.49144    0  134          -   41.49144      -     -    0s
     0     0   42.01649    0  137          -   42.01649      -     -    0s
     0     0   42.38976    0  125          -   42.38976      -     -    0s
     0     0   42.38976    0  125          -   42.38976      -     -    0s
     0     0   44.33227    0  146          -   44.33227      -     -    0s
     0     0   45.94000    0  172          -   45.94000      -     -    0s
     0     0   46.46720    0  114          -   46.46720      -     -    0s
     0     0   46.46720    0  114          -   46.46720      -     -    0s
     0     0   47.06141    0  159          -   47.06141      -     -    0s
     0     0   47.22445    0  162          -   47.22445      -     -    0s
     0     0   48.02445    0  165          -   48.02445      -     -    0s
     0     0   48.05364    0  164          -   48.05364      -     -    0s
     0     0   48.05852    0  165          -   48.05852      -     -    0s
     0     0   49.09381    0  125          -   49.09381      -     -    0s
     0     0   49.31690    0  162          -   49.31690      -     -    0s
     0     0   49.34539    0  171          -   49.34539      -     -    0s
     0     0   49.37459    0  168          -   49.37459      -     -    0s
     0     0   49.40261    0  168          -   49.40261      -     -    0s
     0     0   49.41462    0  170          -   49.41462      -     -    0s
     0     0   49.57327    0  166          -   49.57327      -     -    0s
     0     0   49.61196    0  169          -   49.61196      -     -    0s
     0     0   49.62391    0  172          -   49.62391      -     -    0s
     0     0   50.10904    0  122          -   50.10904      -     -    0s
     0     0   50.12584    0  121          -   50.12584      -     -    0s
     0     0   51.95744    0  162          -   51.95744      -     -    0s
     0     0   52.37769    0  147          -   52.37769      -     -    0s
     0     0   53.19833    0  168          -   53.19833      -     -    0s
     0     0   53.27353    0  169          -   53.27353      -     -    0s
     0     0   53.28696    0  170          -   53.28696      -     -    0s
     0     0   53.76086    0  152          -   53.76086      -     -    0s
     0     0   53.79059    0  163          -   53.79059      -     -    0s
     0     0   53.80169    0  162          -   53.80169      -     -    0s
     0     0   53.88337    0  141          -   53.88337      -     -    0s
     0     0   53.88337    0  141          -   53.88337      -     -    0s
     0     2   53.88337    0  134          -   53.88337      -     -    0s
H 5248  2951                     251.0000000  112.33389  55.2%  12.0    2s
H 5992  3429                     240.0000000  113.77055  52.6%  11.8    3s
  9768  5900     cutoff   98       240.00000  120.71883  49.7%  13.3    5s
 11802  6623  145.00000   76   32  240.00000  125.73033  47.6%  17.2   10s
 19592  8300  199.11628   88   36  240.00000  140.93216  41.3%  17.6   15s
 21022  8523  166.00000   72  141  240.00000  142.25682  40.7%  17.4   20s
 21079  8561  191.66667   77   75  240.00000  168.66308  29.7%  17.3   25s
 21106  8579  172.20808   99  107  240.00000  172.20808  28.2%  17.3   30s
 21131  8596  179.44629   66  112  240.00000  174.52177  27.3%  17.3   35s
 21154  8611  200.46936  116  104  240.00000  175.24711  27.0%  17.3   40s
 21175  8625  175.86567  111  110  240.00000  175.86567  26.7%  17.3   45s
 21195  8638  176.44565   85  102  240.00000  176.44565  26.5%  17.2   50s
 21215  8652  181.00000   49  113  240.00000  176.72869  26.4%  17.2   55s
 21234  8664  176.85929  104  110  240.00000  176.85929  26.3%  17.2   60s
 21255  8678  176.92735   67  118  240.00000  176.92735  26.3%  17.2   65s
 21285  8700  204.15385  121  106  240.00000  177.08753  26.2%  17.8   70s
 21307  8714  204.44621   80  110  240.00000  177.24552  26.1%  17.8   75s
 21327  8728  190.33249   74  109  240.00000  177.35740  26.1%  17.8   80s
 21346  8740  177.38181   79  117  240.00000  177.38181  26.1%  17.8   85s
 21365  8753  194.28508   79  119  240.00000  177.40436  26.1%  17.8   90s
 21384  8766  177.43967   89  119  240.00000  177.43967  26.1%  17.7   95s
 21404  8779  177.49092   93  115  240.00000  177.49092  26.0%  17.7  100s
 21423  8792  225.00000  135  121  240.00000  177.51691  26.0%  17.7  105s
 21438  8805  177.92965   52   87  240.00000  177.55477  26.0%  18.0  110s
 21693  8844  199.93967   90   42  240.00000  178.39894  25.7%  18.7  115s
 24414  8882  189.00000   72   43  240.00000  186.00000  22.5%  23.2  120s
 27931  8002  212.31740   59   18  240.00000  193.88621  19.2%  26.9  125s
 32752  5383 infeasible  103       240.00000  214.50248  10.6%  28.5  130s

Cutting planes:
  Gomory: 1
  Implied bound: 17
  Clique: 2
  MIR: 171
  Flow cover: 192
  Inf proof: 5

Explored 33338 nodes (966036 simplex iterations) in 130.33 seconds
Thread count was 4 (of 4 available processors)

Solution count 2: 240 251 

Optimal solution found (tolerance 1.00e-04)
Best objective 2.400000000000e+02, best bound 2.400000000000e+02, gap 0.0000%
